# Tell Atomify where initial camera position should be
#/camera position 30 50 90
#/camera target 30 30 30
# Information about atoms for coloring and bonds
#/atom 1 silicon
#/atom 2 oxygen
#/bond 1 2 2.6

units metal
boundary p p p
atom_style atomic
read_data nanoporous_sio2.data

pair_style vashishta/table 10000 0.5
pair_coeff	* * SiO2.vashishta Si O
neigh_modify every 1 delay 0 check yes

mass 1 28.08
mass 2 15.9994

velocity all create 500 376847 loop geom

thermo_style one
thermo 100

timestep 0.002

fix nvt all nvt temp 500 500 0.2
run 20
